c This is QMaxSAT 2017 based on 14.07
c This is Glucose 3.0
c This is MiniSat 2.2.0
c WARNING: for repeatability, setting FPU to use double precision
c card = mrwto, comp = 0, pmodel = 0, narr = 6, mct = 29, verb = 0
cr firstCPXsol 0 0 0
c top = 167313
c |  Number of variables:    26214                                            |
c |  Number of clauses:      8524724                                          |
c |  Weight of hard clauses: 167313                                           |
c |  Number of soft clauses: 4872                                             |
c |  Number of unit soft clauses: 4872                                        |
c |  Maximum Cardinality (by unit): 1003872      (1003872     )               |
c last restart ## conflicts  :  37 18958 
o 1261 | cpuTime 0.734941 s
c Sum of weights = 167312
c A number of soft clauses remained = 812
c MRWTO encoding for Pseudo-Boolean Constraints
c sizeMax=1261
c No.0 Divisor=11	generated by pow1
c No.1 Divisor=11	generated by pow1
c No.2 Divisor=11	generated by pow1
c p0= 11	p1= 11	p2= 11	
c number of digits = 4
c linkingVar[0].size = 11, linkingVar[1].size = 11, linkingVar[2].size = 11, linkingVar[3].size = 1, 
c Pseudo-Boolean Constraints: 18387 variables and 168610 clauses
c Sum of weights = 167312
c A number of soft clauses remained = 812
c MRWTO encoding for Pseudo-Boolean Constraints
c sizeMax=1261
c No.0 Divisor=11	generated by pow1
c No.1 Divisor=11	generated by pow1
c No.2 Divisor=11	generated by pow1
c p0= 11	p1= 11	p2= 11	
c number of digits = 4
c linkingVar[0].size = 11, linkingVar[1].size = 11, linkingVar[2].size = 11, linkingVar[3].size = 1, 
c Pseudo-Boolean Constraints: 18387 variables and 168610 clauses
c Sum of weights = 167312
c A number of soft clauses remained = 812
c MRWTO encoding for Pseudo-Boolean Constraints
c sizeMax=1261
c No.0 Divisor=11	generated by pow1
c No.1 Divisor=11	generated by pow1
c No.2 Divisor=11	generated by pow1
c p0= 11	p1= 11	p2= 11	
c number of digits = 4
c linkingVar[0].size = 11, linkingVar[1].size = 11, linkingVar[2].size = 11, linkingVar[3].size = 1, 
c Pseudo-Boolean Constraints: 18387 variables and 168610 clauses
c Sum of weights = 167312
c A number of soft clauses remained = 812
c MRWTO encoding for Pseudo-Boolean Constraints
c sizeMax=1261
c No.0 Divisor=11	generated by pow1
c No.1 Divisor=11	generated by pow1
c No.2 Divisor=11	generated by pow1
c p0= 11	p1= 11	p2= 11	
c number of digits = 4
c linkingVar[0].size = 11, linkingVar[1].size = 11, linkingVar[2].size = 11, linkingVar[3].size = 1, 
c Pseudo-Boolean Constraints: 18387 variables and 168610 clauses
c Sum of weights = 167312
c A number of soft clauses remained = 812
c MRWTO encoding for Pseudo-Boolean Constraints
c sizeMax=1261
c No.0 Divisor=11	generated by pow1
c No.1 Divisor=11	generated by pow1
c No.2 Divisor=11	generated by pow1
c p0= 11	p1= 11	p2= 11	
c number of digits = 4
c linkingVar[0].size = 11, linkingVar[1].size = 11, linkingVar[2].size = 11, linkingVar[3].size = 1, 
c Pseudo-Boolean Constraints: 18387 variables and 168610 clauses
c Sum of weights = 167312
c A number of soft clauses remained = 812
c MRWTO encoding for Pseudo-Boolean Constraints
c sizeMax=1261
c No.0 Divisor=11	generated by pow1
c No.1 Divisor=11	generated by pow1
c No.2 Divisor=11	generated by pow1
c p0= 11	p1= 11	p2= 11	
c number of digits = 4
c linkingVar[0].size = 11, linkingVar[1].size = 11, linkingVar[2].size = 11, linkingVar[3].size = 1, 
c Pseudo-Boolean Constraints: 18387 variables and 168610 clauses
c last restart ## conflicts  :  205 10267 
o 1198 | cpuTime 1.38659 s
c last restart ## conflicts  :  119 35432 
o 1103 | cpuTime 1.45566 s
c last restart ## conflicts  :  603 11560 
o 1048 | cpuTime 23.7231 s
c last restart ## conflicts  :  319 10786 
o 1031 | cpuTime 44.5472 s
c last restart ## conflicts  :  409 9942 
o 977 | cpuTime 71.4626 s
c last restart ## conflicts  :  323 13022 
o 938 | cpuTime 99.6517 s
c last restart ## conflicts  :  196 9280 
o 916 | cpuTime 117.044 s
c last restart ## conflicts  :  46 12260 
o 889 | cpuTime 131.155 s
c last restart ## conflicts  :  252 11940 
o 829 | cpuTime 344.769 s
c last restart ## conflicts  :  1464 12175 
o 793 | cpuTime 2421.65 s
s UNKNOWN
c Search is stopped by a limit (maybe time-limit)
cr positiVarArr: [ | 10@1(1->10) | 283@1(10->22) | 310@1(11->20) | 572@1(20->21) | 581@1(21->1) | 620@1(22->11) | 845@2(1->4) | 943@2(4->15) | 1040@2(7->25) | 1254@2(15->7) | 1538@2(25->1) | 1708@3(1->26) | 1769@3(3->29) | 2029@3(12->28) | 2410@3(26->3) | 2466@3(28->1) | 2506@3(29->12) | 2536@4(1->13) | 2676@4(6->8) | 2727@4(8->1) | 2898@4(13->27) | 2982@4(16->24) | 3196@4(24->6) | 3293@4(27->16) | 3387@5(1->23) | 3394@5(2->1) | 3482@5(5->2) | 3601@5(9->5) | 4011@5(23->9) | 4224@6(1->19) | 4600@6(14->18) | 4683@6(17->14) | 4699@6(18->1) | 4744@6(19->17) | ]
cr the 1-th chain: [ 1->10->22->11->20->21->1 ] (#non-depot=5) {#cumul.=6}
cr the 2-th chain: [ 1->4->15->7->25->1 ] (#non-depot=4) {#cumul.=10}
cr the 3-th chain: [ 1->26->3->29->12->28->1 ] (#non-depot=5) {#cumul.=15}
cr the 4-th chain: [ 1->13->27->16->24->6->8->1 ] (#non-depot=6) {#cumul.=21}
cr the 5-th chain: [ 1->23->9->5->2->1 ] (#non-depot=4) {#cumul.=25}
cr the 6-th chain: [ 1->19->17->14->18->1 ] (#non-depot=4) {#cumul.=29}
c Latest Answer = 0 by 11 loops
c restarts              : 74978
c conflicts             : 14066684       (3920 /sec)
c decisions             : 136197061      (0.00 % random) (37958 /sec)
c propagations          : 18826876945    (5247034 /sec)
c conflict literals     : 3570502145     (31.04 % deleted)
c Memory used           : 1602.00 MB
c CPU time              : 3588.1 s
